
Welcome to IBM(R) ILOG(R) CPLEX(R) Interactive Optimizer 22.1.1.0
  with Simplex, Mixed Integer & Barrier Optimizers
5725-A06 5725-A29 5724-Y48 5724-Y49 5724-Y54 5724-Y55 5655-Y21
Copyright IBM Corp. 1988, 2022.  All Rights Reserved.

Type 'help' for a list of available commands.
Type 'help' followed by a command name for more
information on commands.

CPLEX> New value for default parallel thread count: 1
CPLEX> New value for time limit in seconds: 20
CPLEX> New value for mixed integer optimality gap tolerance: 0
CPLEX> Problem 'results\sealed_closure_round\raw\moderate_seed3302_auto_oracle\interval_7_d1_0.lp' read.
Read time = 0.00 sec. (0.57 ticks)
CPLEX> Version identifier: 22.1.1.0 | 2022-11-27 | 9160aff4d
CPXPARAM_Threads                                 1
CPXPARAM_TimeLimit                               20
CPXPARAM_MIP_Tolerances_MIPGap                   0
Tried aggregator 2 times.
MIP Presolve eliminated 95 rows and 2 columns.
MIP Presolve modified 510 coefficients.
Aggregator did 63 substitutions.
Reduced MIP has 4877 rows, 2046 columns, and 23149 nonzeros.
Reduced MIP has 1469 binaries, 197 generals, 0 SOSs, and 0 indicators.
Presolve time = 0.02 sec. (18.16 ticks)
Probing fixed 0 vars, tightened 6 bounds.
Probing time = 0.02 sec. (41.42 ticks)
Tried aggregator 1 time.
Detecting symmetries...
MIP Presolve eliminated 12 rows and 12 columns.
Reduced MIP has 4865 rows, 2034 columns, and 22861 nonzeros.
Reduced MIP has 1463 binaries, 191 generals, 0 SOSs, and 0 indicators.
Presolve time = 0.02 sec. (18.25 ticks)
Probing time = 0.00 sec. (5.52 ticks)
Clique table members: 12338.
MIP emphasis: balance optimality and feasibility.
MIP search method: dynamic search.
Parallel mode: none, using 1 thread.
Root relaxation solution time = 0.09 sec. (222.49 ticks)

        Nodes                                         Cuts/
   Node  Left     Objective  IInf  Best Integer    Best Bound    ItCnt     Gap

      0     0        0.1377   191                      0.1377     1942
      0     0        0.1410   264                   Cuts: 271     2658
      0     0        0.1414   288                   Cuts: 157     3343
      0     0        0.1417   262                   Cuts: 126     3457
      0     0        0.1417   264                    Cuts: 75     3666
      0     0        0.1417   192                    Cuts: 10     3728
Detecting symmetries...
      0     0        0.1417   226                    Cuts: 57     3993
Detecting symmetries...
      0     2        0.1417   223                      0.1418     3993
Elapsed time = 1.08 sec. (2686.93 ticks, tree = 0.01 MB, solutions = 0)
      2     4        0.1459   219                      0.1430     5640
     12     4        0.1460   202                      0.1459     6897
     15     7        0.1621   257                      0.1459     9075
     19     9        0.1770   184                      0.1459    11575
     30    14    infeasible                            0.1460    18830
     36    14        0.1488   231                      0.1475    20360
     38    16        0.1779   214                      0.1475    23038
     49    21        0.1501   209                      0.1479    24226
     53    25        0.1792   241                      0.1479    28342
     70    34        0.1888   176                      0.1479    34340
Elapsed time = 3.28 sec. (8054.21 ticks, tree = 0.28 MB, solutions = 0)
    131    61        0.1512   226                      0.1508    41106
    153    67        0.1947   205                      0.1514    47586
    180    82        0.1822   191                      0.1528    55209
    235   107        0.1813   231                      0.1542    62590
    289   145        0.1886   127                      0.1542    69958
    347   167        0.1572   236                      0.1545    77828
    372   184        0.1817   249                      0.1547    84555
    417   215        0.1868   185                      0.1547    89046
    453   241        0.1813   231                      0.1550    97102
    517   283        0.1566   252                      0.1565   104281
Elapsed time = 7.72 sec. (18541.87 ticks, tree = 0.62 MB, solutions = 0)
    539   295        0.1814   206                      0.1573   111168
    580   312    infeasible                            0.1603   118287
    589   309    infeasible                            0.1642   123960
    610   324        0.1668   219                      0.1657   127834
    627   327    infeasible                            0.1670   134441
    642   326    infeasible                            0.1686   141252
    664   330        0.1783   265                      0.1701   149468
    677   329        0.1952   218                      0.1723   157818
    694   328    infeasible                            0.1757   164569
    741   369        0.1873   173                      0.1771   168822
Elapsed time = 12.03 sec. (28661.36 ticks, tree = 0.55 MB, solutions = 0)
    780   398        0.1834   205                      0.1780   174819
    840   442    infeasible                            0.1782   180932
    886   474        0.1801   219                      0.1784   188453
    929   497        0.1875   179                      0.1786   193320
    957   509        0.1795   249                      0.1787   199302
   1021   553        0.1844   210                      0.1790   205627
   1052   570        0.1858   233                      0.1795   211395

Performing restart 1

Repeating presolve.
Tried aggregator 1 time.
MIP Presolve eliminated 6 rows and 4 columns.
MIP Presolve modified 4 coefficients.
Reduced MIP has 4859 rows, 2030 columns, and 22841 nonzeros.
Reduced MIP has 1461 binaries, 191 generals, 0 SOSs, and 0 indicators.
Presolve time = 0.00 sec. (10.30 ticks)
Tried aggregator 1 time.
MIP Presolve eliminated 3 rows and 2 columns.
MIP Presolve modified 22 coefficients.
Reduced MIP has 4856 rows, 2028 columns, and 22831 nonzeros.
Reduced MIP has 1460 binaries, 191 generals, 0 SOSs, and 0 indicators.
Presolve time = 0.02 sec. (13.60 ticks)
Represolve time = 0.06 sec. (150.48 ticks)
   1056     0        0.1421   280                    Cuts: 58   217187
   1056     0        0.1422   230                    Cuts: 79   217454
   1056     0        0.1422   280                   Cuts: 269   218034
   1056     0        0.1424   231                    Cuts: 25   218185
   1056     0        0.1426   289                   Cuts: 222   219696
   1056     0        0.1427   236                    Cuts: 65   220994
   1056     0        0.1427   271                   Cuts: 231   223049
   1056     2        0.1427   224                      0.1795   223049

Cover cuts applied:  4
Implied bound cuts applied:  19
Flow cuts applied:  9
Mixed integer rounding cuts applied:  57
Zero-half cuts applied:  4
Gomory fractional cuts applied:  11

Root node processing (before b&c):
  Real time             =    1.08 sec. (2650.76 ticks)
Sequential b&c:
  Real time             =   18.94 sec. (46182.79 ticks)
                          ------------
Total (root+branch&cut) =   20.02 sec. (48833.55 ticks)


MIP - Time limit exceeded, no integer solution.
Current MIP best bound =  1.7950096058e-01 (gap is infinite)
Solution time =   20.02 sec.  Iterations = 223185  Nodes = 1057 (2)
Deterministic time = 48833.56 ticks  (2439.73 ticks/sec)

CPLEX> CPLEX Error  1217: No solution exists.
No file written.
CPLEX>
